4 
5  25 40 51 
6  05 18 32 47 
7  00 15 30 45 
8  00 15 30 45 
9  00 15 30 45 
10  00 14 29 44 59 
11  14 29 44 59 
12  14 29 44 59 
13  14 29 44 59 
14  14 29 44 59 
15  14 29 44 59 
16  14 29 44 59 
17  14 29 44 59 
18  15 30 45 
19  00 15 31 46 
20  01 16 29 40 55 
21  10 25 40 55 
22  10 24 38 50 
23  04 19 
0 
